13678.0
1 0 1 0 1 1 0 0 1 1 0 1 0 1 1 0 0 1 0 1 1 1 1 0 1 1 0 0 1 1 
20 11 13 2 20 5 2 9 14 17 22 8 8 20 19 14 14 17 5 11 2 0 5 17 5 8 19 24 5 24 5 25 20 25 20 20 5 24 0 14 0 14 24 28 24 14 4 13 11 8 29 14 14 5 13 20 17 11 0 14 0 24 20 11 11 11 9 0 24 22 20 20 11 17 24 8 22 8 14 24 13 0 13 17 17 17 2 4 20 5 2 9 17 11 17 5 2 2 21 13 8 17 17 25 2 29 17 11 28 28 14 14 2 11 11 21 24 24 24 24 5 8 25 13 8 0 5 9 0 29 0 11 24 29 8 14 17 5 20 17 0 8 20 14 8 25 25 5 2 5 